; benchmark generated from python API
(set-info :status unknown)
(declare-fun cell_1_2 () Int)
(declare-fun cell_1_6 () Int)
(declare-fun cell_2_1 () Int)
(declare-fun cell_2_6 () Int)
(declare-fun cell_3_8 () Int)
(declare-fun cell_3_9 () Int)
(declare-fun cell_4_4 () Int)
(declare-fun cell_4_9 () Int)
(declare-fun cell_5_3 () Int)
(declare-fun cell_6_8 () Int)
(declare-fun cell_7_5 () Int)
(declare-fun cell_8_7 () Int)
(declare-fun cell_9_1 () Int)
(declare-fun cell_1_1 () Int)
(declare-fun cell_3_1 () Int)
(declare-fun cell_4_1 () Int)
(declare-fun cell_5_1 () Int)
(declare-fun cell_6_1 () Int)
(declare-fun cell_7_1 () Int)
(declare-fun cell_8_1 () Int)
(declare-fun cell_2_2 () Int)
(declare-fun cell_3_2 () Int)
(declare-fun cell_4_2 () Int)
(declare-fun cell_5_2 () Int)
(declare-fun cell_6_2 () Int)
(declare-fun cell_7_2 () Int)
(declare-fun cell_8_2 () Int)
(declare-fun cell_9_2 () Int)
(declare-fun cell_1_3 () Int)
(declare-fun cell_2_3 () Int)
(declare-fun cell_3_3 () Int)
(declare-fun cell_4_3 () Int)
(declare-fun cell_6_3 () Int)
(declare-fun cell_7_3 () Int)
(declare-fun cell_8_3 () Int)
(declare-fun cell_9_3 () Int)
(declare-fun cell_1_4 () Int)
(declare-fun cell_2_4 () Int)
(declare-fun cell_3_4 () Int)
(declare-fun cell_5_4 () Int)
(declare-fun cell_6_4 () Int)
(declare-fun cell_7_4 () Int)
(declare-fun cell_8_4 () Int)
(declare-fun cell_9_4 () Int)
(declare-fun cell_1_5 () Int)
(declare-fun cell_2_5 () Int)
(declare-fun cell_3_5 () Int)
(declare-fun cell_4_5 () Int)
(declare-fun cell_5_5 () Int)
(declare-fun cell_6_5 () Int)
(declare-fun cell_8_5 () Int)
(declare-fun cell_9_5 () Int)
(declare-fun cell_3_6 () Int)
(declare-fun cell_4_6 () Int)
(declare-fun cell_5_6 () Int)
(declare-fun cell_6_6 () Int)
(declare-fun cell_7_6 () Int)
(declare-fun cell_8_6 () Int)
(declare-fun cell_9_6 () Int)
(declare-fun cell_1_7 () Int)
(declare-fun cell_2_7 () Int)
(declare-fun cell_3_7 () Int)
(declare-fun cell_4_7 () Int)
(declare-fun cell_5_7 () Int)
(declare-fun cell_6_7 () Int)
(declare-fun cell_7_7 () Int)
(declare-fun cell_9_7 () Int)
(declare-fun cell_1_8 () Int)
(declare-fun cell_2_8 () Int)
(declare-fun cell_4_8 () Int)
(declare-fun cell_5_8 () Int)
(declare-fun cell_7_8 () Int)
(declare-fun cell_8_8 () Int)
(declare-fun cell_9_8 () Int)
(declare-fun cell_1_9 () Int)
(declare-fun cell_2_9 () Int)
(declare-fun cell_5_9 () Int)
(declare-fun cell_6_9 () Int)
(declare-fun cell_7_9 () Int)
(declare-fun cell_8_9 () Int)
(declare-fun cell_9_9 () Int)
(assert
 (= cell_1_2 1))
(assert
 (= cell_1_6 2))
(assert
 (= cell_2_1 2))
(assert
 (= cell_2_6 1))
(assert
 (= cell_3_8 2))
(assert
 (= cell_3_9 1))
(assert
 (= cell_4_4 1))
(assert
 (= cell_4_9 2))
(assert
 (= cell_5_3 1))
(assert
 (= cell_6_8 1))
(assert
 (= cell_7_5 1))
(assert
 (= cell_8_7 1))
(assert
 (= cell_9_1 1))
(assert
 (let (($x2470 (= cell_1_1 9)))
 (let (($x739 (= cell_1_1 8)))
 (let (($x1769 (= cell_1_1 7)))
 (let (($x2622 (= cell_1_1 6)))
 (let (($x1523 (= cell_1_1 5)))
 (let (($x3235 (= cell_1_1 4)))
 (let (($x1705 (= cell_1_1 3)))
 (let (($x2325 (= cell_1_1 2)))
 (let (($x7962 (= cell_1_1 1)))
 (or $x7962 $x2325 $x1705 $x3235 $x1523 $x2622 $x1769 $x739 $x2470)))))))))))
(assert
 (let (($x993 (= cell_2_1 2)))
 (or (= cell_2_1 1) $x993 (= cell_2_1 3) (= cell_2_1 4) (= cell_2_1 5) (= cell_2_1 6) (= cell_2_1 7) (= cell_2_1 8) (= cell_2_1 9))))
(assert
 (let (($x3517 (= cell_3_1 9)))
 (let (($x875 (= cell_3_1 8)))
 (let (($x3064 (= cell_3_1 7)))
 (let (($x1831 (= cell_3_1 6)))
 (let (($x1406 (= cell_3_1 5)))
 (let (($x2474 (= cell_3_1 4)))
 (let (($x736 (= cell_3_1 3)))
 (let (($x975 (= cell_3_1 2)))
 (let (($x572 (= cell_3_1 1)))
 (or $x572 $x975 $x736 $x2474 $x1406 $x1831 $x3064 $x875 $x3517)))))))))))
(assert
 (let (($x1968 (= cell_4_1 9)))
 (let (($x1031 (= cell_4_1 8)))
 (let (($x677 (= cell_4_1 7)))
 (let (($x2650 (= cell_4_1 6)))
 (let (($x1070 (= cell_4_1 5)))
 (let (($x2540 (= cell_4_1 4)))
 (let (($x1686 (= cell_4_1 3)))
 (let (($x4029 (= cell_4_1 2)))
 (let (($x1752 (= cell_4_1 1)))
 (or $x1752 $x4029 $x1686 $x2540 $x1070 $x2650 $x677 $x1031 $x1968)))))))))))
(assert
 (let (($x3981 (= cell_5_1 9)))
 (let (($x2283 (= cell_5_1 8)))
 (let (($x3255 (= cell_5_1 7)))
 (let (($x2188 (= cell_5_1 6)))
 (let (($x1951 (= cell_5_1 5)))
 (let (($x2193 (= cell_5_1 4)))
 (let (($x1835 (= cell_5_1 3)))
 (let (($x910 (= cell_5_1 2)))
 (let (($x169 (= cell_5_1 1)))
 (or $x169 $x910 $x1835 $x2193 $x1951 $x2188 $x3255 $x2283 $x3981)))))))))))
(assert
 (let (($x3097 (= cell_6_1 9)))
 (let (($x1319 (= cell_6_1 8)))
 (let (($x1529 (= cell_6_1 7)))
 (let (($x2800 (= cell_6_1 6)))
 (let (($x2500 (= cell_6_1 5)))
 (let (($x667 (= cell_6_1 4)))
 (let (($x1291 (= cell_6_1 3)))
 (let (($x2907 (= cell_6_1 2)))
 (let (($x4228 (= cell_6_1 1)))
 (or $x4228 $x2907 $x1291 $x667 $x2500 $x2800 $x1529 $x1319 $x3097)))))))))))
(assert
 (let (($x3175 (= cell_7_1 9)))
 (let (($x1037 (= cell_7_1 8)))
 (let (($x798 (= cell_7_1 7)))
 (let (($x2169 (= cell_7_1 6)))
 (let (($x3693 (= cell_7_1 5)))
 (let (($x2640 (= cell_7_1 4)))
 (let (($x308 (= cell_7_1 3)))
 (let (($x3812 (= cell_7_1 2)))
 (let (($x1141 (= cell_7_1 1)))
 (or $x1141 $x3812 $x308 $x2640 $x3693 $x2169 $x798 $x1037 $x3175)))))))))))
(assert
 (let (($x1027 (= cell_8_1 9)))
 (let (($x53 (= cell_8_1 8)))
 (let (($x2043 (= cell_8_1 7)))
 (let (($x2877 (= cell_8_1 6)))
 (let (($x2856 (= cell_8_1 5)))
 (let (($x3457 (= cell_8_1 4)))
 (let (($x7788 (= cell_8_1 3)))
 (let (($x1609 (= cell_8_1 2)))
 (let (($x2411 (= cell_8_1 1)))
 (or $x2411 $x1609 $x7788 $x3457 $x2856 $x2877 $x2043 $x53 $x1027)))))))))))
(assert
 (let (($x2055 (= cell_9_1 1)))
 (or $x2055 (= cell_9_1 2) (= cell_9_1 3) (= cell_9_1 4) (= cell_9_1 5) (= cell_9_1 6) (= cell_9_1 7) (= cell_9_1 8) (= cell_9_1 9))))
(assert
 (let (($x296 (= cell_1_2 1)))
 (or $x296 (= cell_1_2 2) (= cell_1_2 3) (= cell_1_2 4) (= cell_1_2 5) (= cell_1_2 6) (= cell_1_2 7) (= cell_1_2 8) (= cell_1_2 9))))
(assert
 (let (($x402 (= cell_2_2 9)))
 (let (($x1621 (= cell_2_2 8)))
 (let (($x886 (= cell_2_2 7)))
 (let (($x3773 (= cell_2_2 6)))
 (let (($x2232 (= cell_2_2 5)))
 (let (($x2635 (= cell_2_2 4)))
 (let (($x349 (= cell_2_2 3)))
 (let (($x184 (= cell_2_2 2)))
 (let (($x1229 (= cell_2_2 1)))
 (or $x1229 $x184 $x349 $x2635 $x2232 $x3773 $x886 $x1621 $x402)))))))))))
(assert
 (let (($x961 (= cell_3_2 9)))
 (let (($x322 (= cell_3_2 8)))
 (let (($x2468 (= cell_3_2 7)))
 (let (($x2771 (= cell_3_2 6)))
 (let (($x1570 (= cell_3_2 5)))
 (let (($x1332 (= cell_3_2 4)))
 (let (($x743 (= cell_3_2 3)))
 (let (($x680 (= cell_3_2 2)))
 (let (($x655 (= cell_3_2 1)))
 (or $x655 $x680 $x743 $x1332 $x1570 $x2771 $x2468 $x322 $x961)))))))))))
(assert
 (let (($x2801 (= cell_4_2 9)))
 (let (($x457 (= cell_4_2 8)))
 (let (($x2476 (= cell_4_2 7)))
 (let (($x2685 (= cell_4_2 6)))
 (let (($x848 (= cell_4_2 5)))
 (let (($x928 (= cell_4_2 4)))
 (let (($x438 (= cell_4_2 3)))
 (let (($x1756 (= cell_4_2 2)))
 (let (($x2210 (= cell_4_2 1)))
 (or $x2210 $x1756 $x438 $x928 $x848 $x2685 $x2476 $x457 $x2801)))))))))))
(assert
 (let (($x1351 (= cell_5_2 9)))
 (let (($x2859 (= cell_5_2 8)))
 (let (($x2205 (= cell_5_2 7)))
 (let (($x8017 (= cell_5_2 6)))
 (let (($x299 (= cell_5_2 5)))
 (let (($x1309 (= cell_5_2 4)))
 (let (($x1692 (= cell_5_2 3)))
 (let (($x377 (= cell_5_2 2)))
 (let (($x2361 (= cell_5_2 1)))
 (or $x2361 $x377 $x1692 $x1309 $x299 $x8017 $x2205 $x2859 $x1351)))))))))))
(assert
 (let (($x361 (= cell_6_2 9)))
 (let (($x1006 (= cell_6_2 8)))
 (let (($x2377 (= cell_6_2 7)))
 (let (($x311 (= cell_6_2 6)))
 (let (($x1775 (= cell_6_2 5)))
 (let (($x1338 (= cell_6_2 4)))
 (let (($x2141 (= cell_6_2 3)))
 (let (($x1052 (= cell_6_2 2)))
 (let (($x1760 (= cell_6_2 1)))
 (or $x1760 $x1052 $x2141 $x1338 $x1775 $x311 $x2377 $x1006 $x361)))))))))))
(assert
 (let (($x3339 (= cell_7_2 9)))
 (let (($x1985 (= cell_7_2 8)))
 (let (($x3229 (= cell_7_2 7)))
 (let (($x2720 (= cell_7_2 6)))
 (let (($x1289 (= cell_7_2 5)))
 (let (($x1461 (= cell_7_2 4)))
 (let (($x7795 (= cell_7_2 3)))
 (let (($x276 (= cell_7_2 2)))
 (let (($x885 (= cell_7_2 1)))
 (or $x885 $x276 $x7795 $x1461 $x1289 $x2720 $x3229 $x1985 $x3339)))))))))))
(assert
 (let (($x1566 (= cell_8_2 9)))
 (let (($x3280 (= cell_8_2 8)))
 (let (($x3859 (= cell_8_2 7)))
 (let (($x2656 (= cell_8_2 6)))
 (let (($x436 (= cell_8_2 5)))
 (let (($x1255 (= cell_8_2 4)))
 (let (($x1719 (= cell_8_2 3)))
 (let (($x2670 (= cell_8_2 2)))
 (let (($x594 (= cell_8_2 1)))
 (or $x594 $x2670 $x1719 $x1255 $x436 $x2656 $x3859 $x3280 $x1566)))))))))))
(assert
 (let (($x3614 (= cell_9_2 2)))
 (let (($x4093 (= cell_9_2 1)))
 (or $x4093 $x3614 (= cell_9_2 3) (= cell_9_2 4) (= cell_9_2 5) (= cell_9_2 6) (= cell_9_2 7) (= cell_9_2 8) (= cell_9_2 9)))))
(assert
 (let (($x3472 (= cell_1_3 9)))
 (let (($x763 (= cell_1_3 8)))
 (let (($x3647 (= cell_1_3 7)))
 (let (($x1902 (= cell_1_3 6)))
 (let (($x2872 (= cell_1_3 5)))
 (let (($x74 (= cell_1_3 4)))
 (let (($x1715 (= cell_1_3 3)))
 (let (($x1393 (= cell_1_3 2)))
 (let (($x489 (= cell_1_3 1)))
 (or $x489 $x1393 $x1715 $x74 $x2872 $x1902 $x3647 $x763 $x3472)))))))))))
(assert
 (let (($x1699 (= cell_2_3 9)))
 (let (($x4072 (= cell_2_3 8)))
 (let (($x1412 (= cell_2_3 7)))
 (let (($x2342 (= cell_2_3 6)))
 (let (($x2713 (= cell_2_3 5)))
 (let (($x2081 (= cell_2_3 4)))
 (let (($x1248 (= cell_2_3 3)))
 (let (($x535 (= cell_2_3 2)))
 (let (($x2595 (= cell_2_3 1)))
 (or $x2595 $x535 $x1248 $x2081 $x2713 $x2342 $x1412 $x4072 $x1699)))))))))))
(assert
 (let (($x2703 (= cell_3_3 9)))
 (let (($x530 (= cell_3_3 8)))
 (let (($x4246 (= cell_3_3 7)))
 (let (($x584 (= cell_3_3 6)))
 (let (($x1477 (= cell_3_3 5)))
 (let (($x3793 (= cell_3_3 4)))
 (let (($x3141 (= cell_3_3 3)))
 (let (($x62 (= cell_3_3 2)))
 (let (($x388 (= cell_3_3 1)))
 (or $x388 $x62 $x3141 $x3793 $x1477 $x584 $x4246 $x530 $x2703)))))))))))
(assert
 (let (($x7839 (= cell_4_3 9)))
 (let (($x266 (= cell_4_3 8)))
 (let (($x1365 (= cell_4_3 7)))
 (let (($x1076 (= cell_4_3 6)))
 (let (($x429 (= cell_4_3 5)))
 (let (($x653 (= cell_4_3 4)))
 (let (($x883 (= cell_4_3 3)))
 (let (($x2727 (= cell_4_3 2)))
 (let (($x1506 (= cell_4_3 1)))
 (or $x1506 $x2727 $x883 $x653 $x429 $x1076 $x1365 $x266 $x7839)))))))))))
(assert
 (let (($x3518 (= cell_5_3 1)))
 (or $x3518 (= cell_5_3 2) (= cell_5_3 3) (= cell_5_3 4) (= cell_5_3 5) (= cell_5_3 6) (= cell_5_3 7) (= cell_5_3 8) (= cell_5_3 9))))
(assert
 (let (($x1904 (= cell_6_3 9)))
 (let (($x1938 (= cell_6_3 8)))
 (let (($x2110 (= cell_6_3 7)))
 (let (($x305 (= cell_6_3 6)))
 (let (($x166 (= cell_6_3 5)))
 (let (($x3855 (= cell_6_3 4)))
 (let (($x50 (= cell_6_3 3)))
 (let (($x1225 (= cell_6_3 2)))
 (let (($x671 (= cell_6_3 1)))
 (or $x671 $x1225 $x50 $x3855 $x166 $x305 $x2110 $x1938 $x1904)))))))))))
(assert
 (let (($x3436 (= cell_7_3 9)))
 (let (($x2345 (= cell_7_3 8)))
 (let (($x1089 (= cell_7_3 7)))
 (let (($x1605 (= cell_7_3 6)))
 (let (($x783 (= cell_7_3 5)))
 (let (($x2264 (= cell_7_3 4)))
 (let (($x1889 (= cell_7_3 3)))
 (let (($x826 (= cell_7_3 2)))
 (let (($x1274 (= cell_7_3 1)))
 (or $x1274 $x826 $x1889 $x2264 $x783 $x1605 $x1089 $x2345 $x3436)))))))))))
(assert
 (let (($x424 (= cell_8_3 9)))
 (let (($x2626 (= cell_8_3 8)))
 (let (($x1294 (= cell_8_3 7)))
 (let (($x2208 (= cell_8_3 6)))
 (let (($x2853 (= cell_8_3 5)))
 (let (($x1741 (= cell_8_3 4)))
 (let (($x7885 (= cell_8_3 3)))
 (let (($x7668 (= cell_8_3 2)))
 (let (($x8016 (= cell_8_3 1)))
 (or $x8016 $x7668 $x7885 $x1741 $x2853 $x2208 $x1294 $x2626 $x424)))))))))))
(assert
 (let (($x2071 (= cell_9_3 1)))
 (or $x2071 (= cell_9_3 2) (= cell_9_3 3) (= cell_9_3 4) (= cell_9_3 5) (= cell_9_3 6) (= cell_9_3 7) (= cell_9_3 8) (= cell_9_3 9))))
(assert
 (let (($x2784 (= cell_1_4 9)))
 (let (($x600 (= cell_1_4 8)))
 (let (($x3047 (= cell_1_4 7)))
 (let (($x7662 (= cell_1_4 6)))
 (let (($x897 (= cell_1_4 5)))
 (let (($x2494 (= cell_1_4 4)))
 (let (($x768 (= cell_1_4 3)))
 (let (($x2427 (= cell_1_4 2)))
 (let (($x1530 (= cell_1_4 1)))
 (or $x1530 $x2427 $x768 $x2494 $x897 $x7662 $x3047 $x600 $x2784)))))))))))
(assert
 (let (($x890 (= cell_2_4 9)))
 (let (($x2099 (= cell_2_4 8)))
 (let (($x1011 (= cell_2_4 7)))
 (let (($x2162 (= cell_2_4 6)))
 (let (($x3060 (= cell_2_4 5)))
 (let (($x2132 (= cell_2_4 4)))
 (let (($x7762 (= cell_2_4 3)))
 (let (($x1366 (= cell_2_4 2)))
 (let (($x1384 (= cell_2_4 1)))
 (or $x1384 $x1366 $x7762 $x2132 $x3060 $x2162 $x1011 $x2099 $x890)))))))))))
(assert
 (let (($x818 (= cell_3_4 9)))
 (let (($x3342 (= cell_3_4 8)))
 (let (($x2271 (= cell_3_4 7)))
 (let (($x2485 (= cell_3_4 6)))
 (let (($x1597 (= cell_3_4 5)))
 (let (($x478 (= cell_3_4 4)))
 (let (($x972 (= cell_3_4 3)))
 (let (($x531 (= cell_3_4 2)))
 (let (($x901 (= cell_3_4 1)))
 (or $x901 $x531 $x972 $x478 $x1597 $x2485 $x2271 $x3342 $x818)))))))))))
(assert
 (let (($x1398 (= cell_4_4 1)))
 (or $x1398 (= cell_4_4 2) (= cell_4_4 3) (= cell_4_4 4) (= cell_4_4 5) (= cell_4_4 6) (= cell_4_4 7) (= cell_4_4 8) (= cell_4_4 9))))
(assert
 (let (($x91 (= cell_5_4 9)))
 (let (($x2814 (= cell_5_4 8)))
 (let (($x3762 (= cell_5_4 7)))
 (let (($x3643 (= cell_5_4 6)))
 (let (($x3835 (= cell_5_4 5)))
 (let (($x1581 (= cell_5_4 4)))
 (let (($x3134 (= cell_5_4 3)))
 (let (($x2079 (= cell_5_4 2)))
 (let (($x1669 (= cell_5_4 1)))
 (or $x1669 $x2079 $x3134 $x1581 $x3835 $x3643 $x3762 $x2814 $x91)))))))))))
(assert
 (let (($x3179 (= cell_6_4 9)))
 (let (($x118 (= cell_6_4 8)))
 (let (($x2473 (= cell_6_4 7)))
 (let (($x3140 (= cell_6_4 6)))
 (let (($x4180 (= cell_6_4 5)))
 (let (($x642 (= cell_6_4 4)))
 (let (($x2041 (= cell_6_4 3)))
 (let (($x1757 (= cell_6_4 2)))
 (let (($x2680 (= cell_6_4 1)))
 (or $x2680 $x1757 $x2041 $x642 $x4180 $x3140 $x2473 $x118 $x3179)))))))))))
(assert
 (let (($x2559 (= cell_7_4 9)))
 (let (($x2684 (= cell_7_4 8)))
 (let (($x2279 (= cell_7_4 7)))
 (let (($x99 (= cell_7_4 6)))
 (let (($x3557 (= cell_7_4 5)))
 (let (($x2612 (= cell_7_4 4)))
 (let (($x2867 (= cell_7_4 3)))
 (let (($x1667 (= cell_7_4 2)))
 (let (($x686 (= cell_7_4 1)))
 (or $x686 $x1667 $x2867 $x2612 $x3557 $x99 $x2279 $x2684 $x2559)))))))))))
(assert
 (let (($x1045 (= cell_8_4 9)))
 (let (($x2220 (= cell_8_4 8)))
 (let (($x223 (= cell_8_4 7)))
 (let (($x494 (= cell_8_4 6)))
 (let (($x2323 (= cell_8_4 5)))
 (let (($x704 (= cell_8_4 4)))
 (let (($x1629 (= cell_8_4 3)))
 (let (($x7986 (= cell_8_4 2)))
 (let (($x3642 (= cell_8_4 1)))
 (or $x3642 $x7986 $x1629 $x704 $x2323 $x494 $x223 $x2220 $x1045)))))))))))
(assert
 (let (($x556 (= cell_9_4 1)))
 (or $x556 (= cell_9_4 2) (= cell_9_4 3) (= cell_9_4 4) (= cell_9_4 5) (= cell_9_4 6) (= cell_9_4 7) (= cell_9_4 8) (= cell_9_4 9))))
(assert
 (let (($x794 (= cell_1_5 9)))
 (let (($x1283 (= cell_1_5 8)))
 (let (($x742 (= cell_1_5 7)))
 (let (($x1707 (= cell_1_5 6)))
 (let (($x3228 (= cell_1_5 5)))
 (let (($x1546 (= cell_1_5 4)))
 (let (($x1457 (= cell_1_5 3)))
 (let (($x1552 (= cell_1_5 2)))
 (let (($x202 (= cell_1_5 1)))
 (or $x202 $x1552 $x1457 $x1546 $x3228 $x1707 $x742 $x1283 $x794)))))))))))
(assert
 (let (($x3886 (= cell_2_5 9)))
 (let (($x2155 (= cell_2_5 8)))
 (let (($x3749 (= cell_2_5 7)))
 (let (($x1245 (= cell_2_5 6)))
 (let (($x2182 (= cell_2_5 5)))
 (let (($x1311 (= cell_2_5 4)))
 (let (($x1918 (= cell_2_5 3)))
 (let (($x4224 (= cell_2_5 2)))
 (let (($x2416 (= cell_2_5 1)))
 (or $x2416 $x4224 $x1918 $x1311 $x2182 $x1245 $x3749 $x2155 $x3886)))))))))))
(assert
 (let (($x2808 (= cell_3_5 9)))
 (let (($x2522 (= cell_3_5 8)))
 (let (($x1511 (= cell_3_5 7)))
 (let (($x484 (= cell_3_5 6)))
 (let (($x2057 (= cell_3_5 5)))
 (let (($x2459 (= cell_3_5 4)))
 (let (($x218 (= cell_3_5 3)))
 (let (($x1738 (= cell_3_5 2)))
 (let (($x3362 (= cell_3_5 1)))
 (or $x3362 $x1738 $x218 $x2459 $x2057 $x484 $x1511 $x2522 $x2808)))))))))))
(assert
 (let (($x1665 (= cell_4_5 9)))
 (let (($x490 (= cell_4_5 8)))
 (let (($x3336 (= cell_4_5 7)))
 (let (($x1662 (= cell_4_5 6)))
 (let (($x920 (= cell_4_5 5)))
 (let (($x4025 (= cell_4_5 4)))
 (let (($x2003 (= cell_4_5 3)))
 (let (($x871 (= cell_4_5 2)))
 (let (($x2381 (= cell_4_5 1)))
 (or $x2381 $x871 $x2003 $x4025 $x920 $x1662 $x3336 $x490 $x1665)))))))))))
(assert
 (let (($x2490 (= cell_5_5 9)))
 (let (($x1112 (= cell_5_5 8)))
 (let (($x1778 (= cell_5_5 7)))
 (let (($x3419 (= cell_5_5 6)))
 (let (($x1765 (= cell_5_5 5)))
 (let (($x3727 (= cell_5_5 4)))
 (let (($x1893 (= cell_5_5 3)))
 (let (($x2356 (= cell_5_5 2)))
 (let (($x3667 (= cell_5_5 1)))
 (or $x3667 $x2356 $x1893 $x3727 $x1765 $x3419 $x1778 $x1112 $x2490)))))))))))
(assert
 (let (($x3854 (= cell_6_5 9)))
 (let (($x837 (= cell_6_5 8)))
 (let (($x3750 (= cell_6_5 7)))
 (let (($x2838 (= cell_6_5 6)))
 (let (($x3711 (= cell_6_5 5)))
 (let (($x3242 (= cell_6_5 4)))
 (let (($x35 (= cell_6_5 3)))
 (let (($x4064 (= cell_6_5 2)))
 (let (($x3858 (= cell_6_5 1)))
 (or $x3858 $x4064 $x35 $x3242 $x3711 $x2838 $x3750 $x837 $x3854)))))))))))
(assert
 (let (($x2257 (= cell_7_5 1)))
 (or $x2257 (= cell_7_5 2) (= cell_7_5 3) (= cell_7_5 4) (= cell_7_5 5) (= cell_7_5 6) (= cell_7_5 7) (= cell_7_5 8) (= cell_7_5 9))))
(assert
 (let (($x606 (= cell_8_5 9)))
 (let (($x1604 (= cell_8_5 8)))
 (let (($x706 (= cell_8_5 7)))
 (let (($x884 (= cell_8_5 6)))
 (let (($x1462 (= cell_8_5 5)))
 (let (($x2981 (= cell_8_5 4)))
 (let (($x1612 (= cell_8_5 3)))
 (let (($x1575 (= cell_8_5 2)))
 (let (($x2778 (= cell_8_5 1)))
 (or $x2778 $x1575 $x1612 $x2981 $x1462 $x884 $x706 $x1604 $x606)))))))))))
(assert
 (let (($x1378 (= cell_9_5 1)))
 (or $x1378 (= cell_9_5 2) (= cell_9_5 3) (= cell_9_5 4) (= cell_9_5 5) (= cell_9_5 6) (= cell_9_5 7) (= cell_9_5 8) (= cell_9_5 9))))
(assert
 (let (($x454 (= cell_1_6 2)))
 (or (= cell_1_6 1) $x454 (= cell_1_6 3) (= cell_1_6 4) (= cell_1_6 5) (= cell_1_6 6) (= cell_1_6 7) (= cell_1_6 8) (= cell_1_6 9))))
(assert
 (let (($x2369 (= cell_2_6 1)))
 (or $x2369 (= cell_2_6 2) (= cell_2_6 3) (= cell_2_6 4) (= cell_2_6 5) (= cell_2_6 6) (= cell_2_6 7) (= cell_2_6 8) (= cell_2_6 9))))
(assert
 (let (($x1774 (= cell_3_6 9)))
 (let (($x3508 (= cell_3_6 8)))
 (let (($x2146 (= cell_3_6 7)))
 (let (($x76 (= cell_3_6 6)))
 (let (($x1413 (= cell_3_6 5)))
 (let (($x3965 (= cell_3_6 4)))
 (let (($x3475 (= cell_3_6 3)))
 (let (($x2711 (= cell_3_6 2)))
 (let (($x2707 (= cell_3_6 1)))
 (or $x2707 $x2711 $x3475 $x3965 $x1413 $x76 $x2146 $x3508 $x1774)))))))))))
(assert
 (let (($x2489 (= cell_4_6 9)))
 (let (($x2454 (= cell_4_6 8)))
 (let (($x729 (= cell_4_6 7)))
 (let (($x1071 (= cell_4_6 6)))
 (let (($x2431 (= cell_4_6 5)))
 (let (($x747 (= cell_4_6 4)))
 (let (($x375 (= cell_4_6 3)))
 (let (($x470 (= cell_4_6 2)))
 (let (($x815 (= cell_4_6 1)))
 (or $x815 $x470 $x375 $x747 $x2431 $x1071 $x729 $x2454 $x2489)))))))))))
(assert
 (let (($x1454 (= cell_5_6 2)))
 (let (($x3521 (= cell_5_6 1)))
 (or $x3521 $x1454 (= cell_5_6 3) (= cell_5_6 4) (= cell_5_6 5) (= cell_5_6 6) (= cell_5_6 7) (= cell_5_6 8) (= cell_5_6 9)))))
(assert
 (let (($x3724 (= cell_6_6 9)))
 (let (($x605 (= cell_6_6 8)))
 (let (($x534 (= cell_6_6 7)))
 (let (($x750 (= cell_6_6 6)))
 (let (($x2221 (= cell_6_6 5)))
 (let (($x2267 (= cell_6_6 4)))
 (let (($x1920 (= cell_6_6 3)))
 (let (($x2455 (= cell_6_6 2)))
 (let (($x268 (= cell_6_6 1)))
 (or $x268 $x2455 $x1920 $x2267 $x2221 $x750 $x534 $x605 $x3724)))))))))))
(assert
 (let (($x639 (= cell_7_6 9)))
 (let (($x2432 (= cell_7_6 8)))
 (let (($x958 (= cell_7_6 7)))
 (let (($x502 (= cell_7_6 6)))
 (let (($x2046 (= cell_7_6 5)))
 (let (($x1210 (= cell_7_6 4)))
 (let (($x3308 (= cell_7_6 3)))
 (let (($x1565 (= cell_7_6 2)))
 (let (($x1337 (= cell_7_6 1)))
 (or $x1337 $x1565 $x3308 $x1210 $x2046 $x502 $x958 $x2432 $x639)))))))))))
(assert
 (let (($x3109 (= cell_8_6 9)))
 (let (($x1293 (= cell_8_6 8)))
 (let (($x2096 (= cell_8_6 7)))
 (let (($x2054 (= cell_8_6 6)))
 (let (($x1502 (= cell_8_6 5)))
 (let (($x1544 (= cell_8_6 4)))
 (let (($x2244 (= cell_8_6 3)))
 (let (($x1463 (= cell_8_6 2)))
 (let (($x2677 (= cell_8_6 1)))
 (or $x2677 $x1463 $x2244 $x1544 $x1502 $x2054 $x2096 $x1293 $x3109)))))))))))
(assert
 (let (($x1123 (= cell_9_6 2)))
 (let (($x3386 (= cell_9_6 1)))
 (or $x3386 $x1123 (= cell_9_6 3) (= cell_9_6 4) (= cell_9_6 5) (= cell_9_6 6) (= cell_9_6 7) (= cell_9_6 8) (= cell_9_6 9)))))
(assert
 (let (($x1427 (= cell_1_7 9)))
 (let (($x37 (= cell_1_7 8)))
 (let (($x612 (= cell_1_7 7)))
 (let (($x3589 (= cell_1_7 6)))
 (let (($x2601 (= cell_1_7 5)))
 (let (($x2310 (= cell_1_7 4)))
 (let (($x1873 (= cell_1_7 3)))
 (let (($x785 (= cell_1_7 2)))
 (let (($x580 (= cell_1_7 1)))
 (or $x580 $x785 $x1873 $x2310 $x2601 $x3589 $x612 $x37 $x1427)))))))))))
(assert
 (let (($x200 (= cell_2_7 9)))
 (let (($x840 (= cell_2_7 8)))
 (let (($x2107 (= cell_2_7 7)))
 (let (($x2797 (= cell_2_7 6)))
 (let (($x2331 (= cell_2_7 5)))
 (let (($x3400 (= cell_2_7 4)))
 (let (($x2170 (= cell_2_7 3)))
 (let (($x3454 (= cell_2_7 2)))
 (let (($x446 (= cell_2_7 1)))
 (or $x446 $x3454 $x2170 $x3400 $x2331 $x2797 $x2107 $x840 $x200)))))))))))
(assert
 (let (($x1436 (= cell_3_7 9)))
 (let (($x6 (= cell_3_7 8)))
 (let (($x3096 (= cell_3_7 7)))
 (let (($x3376 (= cell_3_7 6)))
 (let (($x41 (= cell_3_7 5)))
 (let (($x2391 (= cell_3_7 4)))
 (let (($x1733 (= cell_3_7 3)))
 (let (($x4061 (= cell_3_7 2)))
 (let (($x93 (= cell_3_7 1)))
 (or $x93 $x4061 $x1733 $x2391 $x41 $x3376 $x3096 $x6 $x1436)))))))))))
(assert
 (let (($x181 (= cell_4_7 9)))
 (let (($x3843 (= cell_4_7 8)))
 (let (($x1595 (= cell_4_7 7)))
 (let (($x2065 (= cell_4_7 6)))
 (let (($x3450 (= cell_4_7 5)))
 (let (($x147 (= cell_4_7 4)))
 (let (($x3264 (= cell_4_7 3)))
 (let (($x364 (= cell_4_7 2)))
 (let (($x1474 (= cell_4_7 1)))
 (or $x1474 $x364 $x3264 $x147 $x3450 $x2065 $x1595 $x3843 $x181)))))))))))
(assert
 (let (($x1114 (= cell_5_7 9)))
 (let (($x1704 (= cell_5_7 8)))
 (let (($x571 (= cell_5_7 7)))
 (let (($x1724 (= cell_5_7 6)))
 (let (($x2442 (= cell_5_7 5)))
 (let (($x366 (= cell_5_7 4)))
 (let (($x3142 (= cell_5_7 3)))
 (let (($x2518 (= cell_5_7 2)))
 (let (($x795 (= cell_5_7 1)))
 (or $x795 $x2518 $x3142 $x366 $x2442 $x1724 $x571 $x1704 $x1114)))))))))))
(assert
 (let (($x1168 (= cell_6_7 9)))
 (let (($x2938 (= cell_6_7 8)))
 (let (($x668 (= cell_6_7 7)))
 (let (($x3959 (= cell_6_7 6)))
 (let (($x167 (= cell_6_7 5)))
 (let (($x3405 (= cell_6_7 4)))
 (let (($x96 (= cell_6_7 3)))
 (let (($x153 (= cell_6_7 2)))
 (let (($x2147 (= cell_6_7 1)))
 (or $x2147 $x153 $x96 $x3405 $x167 $x3959 $x668 $x2938 $x1168)))))))))))
(assert
 (let (($x3507 (= cell_7_7 9)))
 (let (($x7872 (= cell_7_7 8)))
 (let (($x2763 (= cell_7_7 7)))
 (let (($x3685 (= cell_7_7 6)))
 (let (($x1625 (= cell_7_7 5)))
 (let (($x633 (= cell_7_7 4)))
 (let (($x526 (= cell_7_7 3)))
 (let (($x2475 (= cell_7_7 2)))
 (let (($x3706 (= cell_7_7 1)))
 (or $x3706 $x2475 $x526 $x633 $x1625 $x3685 $x2763 $x7872 $x3507)))))))))))
(assert
 (let (($x1361 (= cell_8_7 1)))
 (or $x1361 (= cell_8_7 2) (= cell_8_7 3) (= cell_8_7 4) (= cell_8_7 5) (= cell_8_7 6) (= cell_8_7 7) (= cell_8_7 8) (= cell_8_7 9))))
(assert
 (let (($x129 (= cell_9_7 1)))
 (or $x129 (= cell_9_7 2) (= cell_9_7 3) (= cell_9_7 4) (= cell_9_7 5) (= cell_9_7 6) (= cell_9_7 7) (= cell_9_7 8) (= cell_9_7 9))))
(assert
 (let (($x2324 (= cell_1_8 9)))
 (let (($x1878 (= cell_1_8 8)))
 (let (($x2168 (= cell_1_8 7)))
 (let (($x814 (= cell_1_8 6)))
 (let (($x2367 (= cell_1_8 5)))
 (let (($x591 (= cell_1_8 4)))
 (let (($x1726 (= cell_1_8 3)))
 (let (($x2998 (= cell_1_8 2)))
 (let (($x413 (= cell_1_8 1)))
 (or $x413 $x2998 $x1726 $x591 $x2367 $x814 $x2168 $x1878 $x2324)))))))))))
(assert
 (let (($x1574 (= cell_2_8 9)))
 (let (($x3703 (= cell_2_8 8)))
 (let (($x3702 (= cell_2_8 7)))
 (let (($x987 (= cell_2_8 6)))
 (let (($x466 (= cell_2_8 5)))
 (let (($x293 (= cell_2_8 4)))
 (let (($x236 (= cell_2_8 3)))
 (let (($x1456 (= cell_2_8 2)))
 (let (($x2970 (= cell_2_8 1)))
 (or $x2970 $x1456 $x236 $x293 $x466 $x987 $x3702 $x3703 $x1574)))))))))))
(assert
 (let (($x108 (= cell_3_8 2)))
 (or (= cell_3_8 1) $x108 (= cell_3_8 3) (= cell_3_8 4) (= cell_3_8 5) (= cell_3_8 6) (= cell_3_8 7) (= cell_3_8 8) (= cell_3_8 9))))
(assert
 (let (($x2941 (= cell_4_8 9)))
 (let (($x3207 (= cell_4_8 8)))
 (let (($x644 (= cell_4_8 7)))
 (let (($x1140 (= cell_4_8 6)))
 (let (($x3135 (= cell_4_8 5)))
 (let (($x1269 (= cell_4_8 4)))
 (let (($x2583 (= cell_4_8 3)))
 (let (($x839 (= cell_4_8 2)))
 (let (($x294 (= cell_4_8 1)))
 (or $x294 $x839 $x2583 $x1269 $x3135 $x1140 $x644 $x3207 $x2941)))))))))))
(assert
 (let (($x809 (= cell_5_8 9)))
 (let (($x3654 (= cell_5_8 8)))
 (let (($x320 (= cell_5_8 7)))
 (let (($x856 (= cell_5_8 6)))
 (let (($x1115 (= cell_5_8 5)))
 (let (($x252 (= cell_5_8 4)))
 (let (($x1556 (= cell_5_8 3)))
 (let (($x968 (= cell_5_8 2)))
 (let (($x1987 (= cell_5_8 1)))
 (or $x1987 $x968 $x1556 $x252 $x1115 $x856 $x320 $x3654 $x809)))))))))))
(assert
 (let (($x792 (= cell_6_8 1)))
 (or $x792 (= cell_6_8 2) (= cell_6_8 3) (= cell_6_8 4) (= cell_6_8 5) (= cell_6_8 6) (= cell_6_8 7) (= cell_6_8 8) (= cell_6_8 9))))
(assert
 (let (($x3039 (= cell_7_8 9)))
 (let (($x2253 (= cell_7_8 8)))
 (let (($x1730 (= cell_7_8 7)))
 (let (($x48 (= cell_7_8 6)))
 (let (($x2781 (= cell_7_8 5)))
 (let (($x3136 (= cell_7_8 4)))
 (let (($x2506 (= cell_7_8 3)))
 (let (($x1532 (= cell_7_8 2)))
 (let (($x948 (= cell_7_8 1)))
 (or $x948 $x1532 $x2506 $x3136 $x2781 $x48 $x1730 $x2253 $x3039)))))))))))
(assert
 (let (($x923 (= cell_8_8 2)))
 (let (($x1832 (= cell_8_8 1)))
 (or $x1832 $x923 (= cell_8_8 3) (= cell_8_8 4) (= cell_8_8 5) (= cell_8_8 6) (= cell_8_8 7) (= cell_8_8 8) (= cell_8_8 9)))))
(assert
 (let (($x2777 (= cell_9_8 2)))
 (let (($x1109 (= cell_9_8 1)))
 (or $x1109 $x2777 (= cell_9_8 3) (= cell_9_8 4) (= cell_9_8 5) (= cell_9_8 6) (= cell_9_8 7) (= cell_9_8 8) (= cell_9_8 9)))))
(assert
 (let (($x2546 (= cell_1_9 9)))
 (let (($x1043 (= cell_1_9 8)))
 (let (($x2721 (= cell_1_9 7)))
 (let (($x664 (= cell_1_9 6)))
 (let (($x359 (= cell_1_9 5)))
 (let (($x2915 (= cell_1_9 4)))
 (let (($x1841 (= cell_1_9 3)))
 (let (($x1706 (= cell_1_9 2)))
 (let (($x2520 (= cell_1_9 1)))
 (or $x2520 $x1706 $x1841 $x2915 $x359 $x664 $x2721 $x1043 $x2546)))))))))))
(assert
 (let (($x2985 (= cell_2_9 9)))
 (let (($x3062 (= cell_2_9 8)))
 (let (($x2106 (= cell_2_9 7)))
 (let (($x201 (= cell_2_9 6)))
 (let (($x629 (= cell_2_9 5)))
 (let (($x1616 (= cell_2_9 4)))
 (let (($x1520 (= cell_2_9 3)))
 (let (($x922 (= cell_2_9 2)))
 (let (($x3983 (= cell_2_9 1)))
 (or $x3983 $x922 $x1520 $x1616 $x629 $x201 $x2106 $x3062 $x2985)))))))))))
(assert
 (let (($x2634 (= cell_3_9 1)))
 (or $x2634 (= cell_3_9 2) (= cell_3_9 3) (= cell_3_9 4) (= cell_3_9 5) (= cell_3_9 6) (= cell_3_9 7) (= cell_3_9 8) (= cell_3_9 9))))
(assert
 (let (($x3694 (= cell_4_9 2)))
 (or (= cell_4_9 1) $x3694 (= cell_4_9 3) (= cell_4_9 4) (= cell_4_9 5) (= cell_4_9 6) (= cell_4_9 7) (= cell_4_9 8) (= cell_4_9 9))))
(assert
 (let (($x1433 (= cell_5_9 9)))
 (let (($x3305 (= cell_5_9 8)))
 (let (($x217 (= cell_5_9 7)))
 (let (($x1376 (= cell_5_9 6)))
 (let (($x3889 (= cell_5_9 5)))
 (let (($x713 (= cell_5_9 4)))
 (let (($x3542 (= cell_5_9 3)))
 (let (($x399 (= cell_5_9 2)))
 (let (($x4069 (= cell_5_9 1)))
 (or $x4069 $x399 $x3542 $x713 $x3889 $x1376 $x217 $x3305 $x1433)))))))))))
(assert
 (let (($x1135 (= cell_6_9 2)))
 (let (($x2860 (= cell_6_9 1)))
 (or $x2860 $x1135 (= cell_6_9 3) (= cell_6_9 4) (= cell_6_9 5) (= cell_6_9 6) (= cell_6_9 7) (= cell_6_9 8) (= cell_6_9 9)))))
(assert
 (let (($x3437 (= cell_7_9 9)))
 (let (($x868 (= cell_7_9 8)))
 (let (($x1939 (= cell_7_9 7)))
 (let (($x915 (= cell_7_9 6)))
 (let (($x659 (= cell_7_9 5)))
 (let (($x540 (= cell_7_9 4)))
 (let (($x2796 (= cell_7_9 3)))
 (let (($x3953 (= cell_7_9 2)))
 (let (($x548 (= cell_7_9 1)))
 (or $x548 $x3953 $x2796 $x540 $x659 $x915 $x1939 $x868 $x3437)))))))))))
(assert
 (let (($x996 (= cell_8_9 2)))
 (let (($x1116 (= cell_8_9 1)))
 (or $x1116 $x996 (= cell_8_9 3) (= cell_8_9 4) (= cell_8_9 5) (= cell_8_9 6) (= cell_8_9 7) (= cell_8_9 8) (= cell_8_9 9)))))
(assert
 (let (($x2493 (= cell_9_9 2)))
 (let (($x738 (= cell_9_9 1)))
 (or $x738 $x2493 (= cell_9_9 3) (= cell_9_9 4) (= cell_9_9 5) (= cell_9_9 6) (= cell_9_9 7) (= cell_9_9 8) (= cell_9_9 9)))))
(assert
 (and (distinct cell_1_1 cell_1_2 cell_1_3 cell_1_4 cell_1_5 cell_1_6 cell_1_7 cell_1_8 cell_1_9) true))
(assert
 (and (distinct cell_2_1 cell_2_2 cell_2_3 cell_2_4 cell_2_5 cell_2_6 cell_2_7 cell_2_8 cell_2_9) true))
(assert
 (and (distinct cell_3_1 cell_3_2 cell_3_3 cell_3_4 cell_3_5 cell_3_6 cell_3_7 cell_3_8 cell_3_9) true))
(assert
 (and (distinct cell_4_1 cell_4_2 cell_4_3 cell_4_4 cell_4_5 cell_4_6 cell_4_7 cell_4_8 cell_4_9) true))
(assert
 (and (distinct cell_5_1 cell_5_2 cell_5_3 cell_5_4 cell_5_5 cell_5_6 cell_5_7 cell_5_8 cell_5_9) true))
(assert
 (and (distinct cell_6_1 cell_6_2 cell_6_3 cell_6_4 cell_6_5 cell_6_6 cell_6_7 cell_6_8 cell_6_9) true))
(assert
 (and (distinct cell_7_1 cell_7_2 cell_7_3 cell_7_4 cell_7_5 cell_7_6 cell_7_7 cell_7_8 cell_7_9) true))
(assert
 (and (distinct cell_8_1 cell_8_2 cell_8_3 cell_8_4 cell_8_5 cell_8_6 cell_8_7 cell_8_8 cell_8_9) true))
(assert
 (and (distinct cell_9_1 cell_9_2 cell_9_3 cell_9_4 cell_9_5 cell_9_6 cell_9_7 cell_9_8 cell_9_9) true))
(assert
 (and (distinct cell_1_1 cell_2_1 cell_3_1 cell_4_1 cell_5_1 cell_6_1 cell_7_1 cell_8_1 cell_9_1) true))
(assert
 (and (distinct cell_1_2 cell_2_2 cell_3_2 cell_4_2 cell_5_2 cell_6_2 cell_7_2 cell_8_2 cell_9_2) true))
(assert
 (and (distinct cell_1_3 cell_2_3 cell_3_3 cell_4_3 cell_5_3 cell_6_3 cell_7_3 cell_8_3 cell_9_3) true))
(assert
 (and (distinct cell_1_4 cell_2_4 cell_3_4 cell_4_4 cell_5_4 cell_6_4 cell_7_4 cell_8_4 cell_9_4) true))
(assert
 (and (distinct cell_1_5 cell_2_5 cell_3_5 cell_4_5 cell_5_5 cell_6_5 cell_7_5 cell_8_5 cell_9_5) true))
(assert
 (and (distinct cell_1_6 cell_2_6 cell_3_6 cell_4_6 cell_5_6 cell_6_6 cell_7_6 cell_8_6 cell_9_6) true))
(assert
 (and (distinct cell_1_7 cell_2_7 cell_3_7 cell_4_7 cell_5_7 cell_6_7 cell_7_7 cell_8_7 cell_9_7) true))
(assert
 (and (distinct cell_1_8 cell_2_8 cell_3_8 cell_4_8 cell_5_8 cell_6_8 cell_7_8 cell_8_8 cell_9_8) true))
(assert
 (and (distinct cell_1_9 cell_2_9 cell_3_9 cell_4_9 cell_5_9 cell_6_9 cell_7_9 cell_8_9 cell_9_9) true))
(assert
 (and (distinct cell_1_1 cell_1_2 cell_1_3 cell_2_1 cell_2_2 cell_2_3 cell_3_1 cell_3_2 cell_3_3) true))
(assert
 (and (distinct cell_1_4 cell_1_5 cell_1_6 cell_2_4 cell_2_5 cell_2_6 cell_3_4 cell_3_5 cell_3_6) true))
(assert
 (and (distinct cell_1_7 cell_1_8 cell_1_9 cell_2_7 cell_2_8 cell_2_9 cell_3_7 cell_3_8 cell_3_9) true))
(assert
 (and (distinct cell_4_1 cell_4_2 cell_4_3 cell_5_1 cell_5_2 cell_5_3 cell_6_1 cell_6_2 cell_6_3) true))
(assert
 (and (distinct cell_4_4 cell_4_5 cell_4_6 cell_5_4 cell_5_5 cell_5_6 cell_6_4 cell_6_5 cell_6_6) true))
(assert
 (and (distinct cell_4_7 cell_4_8 cell_4_9 cell_5_7 cell_5_8 cell_5_9 cell_6_7 cell_6_8 cell_6_9) true))
(assert
 (and (distinct cell_7_1 cell_7_2 cell_7_3 cell_8_1 cell_8_2 cell_8_3 cell_9_1 cell_9_2 cell_9_3) true))
(assert
 (and (distinct cell_7_4 cell_7_5 cell_7_6 cell_8_4 cell_8_5 cell_8_6 cell_9_4 cell_9_5 cell_9_6) true))
(assert
 (and (distinct cell_7_7 cell_7_8 cell_7_9 cell_8_7 cell_8_8 cell_8_9 cell_9_7 cell_9_8 cell_9_9) true))
(assert
 (let (($x3378 (and (distinct cell_5_9 cell_6_8 cell_7_7 cell_8_6) true)))
 (let (($x2173 (and (distinct cell_2_9 cell_3_8 cell_4_7 cell_5_6 cell_6_5 cell_7_4 cell_8_3 cell_9_2) true)))
 (let (($x716 (and (distinct cell_1_8 cell_2_7 cell_3_6 cell_4_5 cell_5_4 cell_6_3 cell_7_2 cell_8_1) true)))
 (let (($x734 (and (distinct cell_1_5 cell_2_4 cell_3_3 cell_4_2) true)))
 (let (($x2457 (and (distinct cell_5_1 cell_6_2 cell_7_3 cell_8_4) true)))
 (let (($x1712 (and (distinct cell_2_1 cell_3_2 cell_4_3 cell_5_4 cell_6_5 cell_7_6 cell_8_7 cell_9_8) true)))
 (let (($x321 (and (distinct cell_1_2 cell_2_3 cell_3_4 cell_4_5 cell_5_6 cell_6_7 cell_7_8 cell_8_9) true)))
 (let (($x2782 (and (distinct cell_1_5 cell_2_6 cell_3_7 cell_4_8) true)))
 (and $x2782 $x321 $x1712 $x2457 $x734 $x716 $x2173 $x3378))))))))))
(assert
 (= cell_5_5 2))
(check-sat)
